
;this file is automatically generated: Mon Nov 02 10:43:05 CST 2020

;declarations generated

(declare-fun type_df39fa67_6ffb_44a5_a799_241b07e9c457_Class11 ( Int) Bool)
(declare-fun type_df39fa67_6ffb_44a5_a799_241b07e9c457_Class10 ( Int) Bool)
(declare-fun type_df39fa67_6ffb_44a5_a799_241b07e9c457_Class13 ( Int) Bool)
(declare-fun type_df39fa67_6ffb_44a5_a799_241b07e9c457_Class12 ( Int) Bool)
(declare-fun type_df39fa67_6ffb_44a5_a799_241b07e9c457_Class15 ( Int) Bool)
(declare-fun type_df39fa67_6ffb_44a5_a799_241b07e9c457_Class14 ( Int) Bool)
(declare-fun type_df39fa67_6ffb_44a5_a799_241b07e9c457_Class17 ( Int) Bool)
(declare-fun type_df39fa67_6ffb_44a5_a799_241b07e9c457_Class16 ( Int) Bool)
(declare-fun oclExcludes ( Int Int) Bool)
(declare-fun class8_Class8IntAttr2 ( Int) Int)
(declare-fun class8_Class8IntAttr3 ( Int) Int)
(declare-fun Cardinality ( Int) Int)
(declare-fun obj_bebd4e66_9ba2_45f9_a45e_05b030999fd0 ( Int) Int)
(declare-fun oclSelect ( Int Bool) Int)
(declare-fun Enum0 ( Int) Int)
(declare-fun Enum1 ( Int) Int)
(declare-fun Enum2 ( Int) Int)
(declare-fun type_df39fa67_6ffb_44a5_a799_241b07e9c457_Class8 ( Int) Bool)
(declare-fun type_df39fa67_6ffb_44a5_a799_241b07e9c457_Class7 ( Int) Bool)
(declare-fun type_df39fa67_6ffb_44a5_a799_241b07e9c457_Class6 ( Int) Bool)
(declare-fun type_df39fa67_6ffb_44a5_a799_241b07e9c457_Class5 ( Int) Bool)
(declare-fun container_ ( Int) Int)
(declare-fun type_df39fa67_6ffb_44a5_a799_241b07e9c457_Class9 ( Int) Bool)
(declare-fun type_df39fa67_6ffb_44a5_a799_241b07e9c457_Class0 ( Int) Bool)
(declare-fun type_df39fa67_6ffb_44a5_a799_241b07e9c457_Class4 ( Int) Bool)
(declare-fun type_df39fa67_6ffb_44a5_a799_241b07e9c457_Class3 ( Int) Bool)
(declare-fun type_df39fa67_6ffb_44a5_a799_241b07e9c457_Class2 ( Int) Bool)
(declare-fun type_df39fa67_6ffb_44a5_a799_241b07e9c457_Class1 ( Int) Bool)
(declare-fun oclIncludes ( Int Int) Bool)
(declare-fun ObjAt ( Int Int) Int)

;formula(s) generated
(assert (forall ((p Int)) (=> ( type_df39fa67_6ffb_44a5_a799_241b07e9c457_Class8 p )  (and (>= ( Enum1 ( obj_bebd4e66_9ba2_45f9_a45e_05b030999fd0 p )  )  0) (<= ( Enum1 ( obj_bebd4e66_9ba2_45f9_a45e_05b030999fd0 p )  )  5)))))
(assert (! (forall ((v Int)) (=> ( type_df39fa67_6ffb_44a5_a799_241b07e9c457_Class8 v )  (or (not (= ( Enum1 ( obj_bebd4e66_9ba2_45f9_a45e_05b030999fd0 v )  )  0) ) (or (forall ((v Int)) (=> ( type_df39fa67_6ffb_44a5_a799_241b07e9c457_Class8 v )  (< ( class8_Class8IntAttr3 ( obj_bebd4e66_9ba2_45f9_a45e_05b030999fd0 v )  )  15))) (forall ((v Int)) (=> ( type_df39fa67_6ffb_44a5_a799_241b07e9c457_Class8 v )  (>= ( class8_Class8IntAttr2 ( obj_bebd4e66_9ba2_45f9_a45e_05b030999fd0 v )  )  18))))))):named l0))
(assert (! (exists ((o Int)) ( type_df39fa67_6ffb_44a5_a799_241b07e9c457_Class0 ( obj_bebd4e66_9ba2_45f9_a45e_05b030999fd0 o )  ) ):named c0))
(assert (! (exists ((o Int)) ( type_df39fa67_6ffb_44a5_a799_241b07e9c457_Class1 ( obj_bebd4e66_9ba2_45f9_a45e_05b030999fd0 o )  ) ):named c1))
(assert (! (exists ((o Int)) (and (and ( type_df39fa67_6ffb_44a5_a799_241b07e9c457_Class10 ( obj_bebd4e66_9ba2_45f9_a45e_05b030999fd0 o )  )  ( type_df39fa67_6ffb_44a5_a799_241b07e9c457_Class14 ( obj_bebd4e66_9ba2_45f9_a45e_05b030999fd0 o )  ) ) ( type_df39fa67_6ffb_44a5_a799_241b07e9c457_Class16 ( obj_bebd4e66_9ba2_45f9_a45e_05b030999fd0 o )  ) )):named c2))
(assert (! (exists ((o Int)) ( type_df39fa67_6ffb_44a5_a799_241b07e9c457_Class11 ( obj_bebd4e66_9ba2_45f9_a45e_05b030999fd0 o )  ) ):named c3))
(assert (! (exists ((o Int)) ( type_df39fa67_6ffb_44a5_a799_241b07e9c457_Class12 ( obj_bebd4e66_9ba2_45f9_a45e_05b030999fd0 o )  ) ):named c4))
(assert (! (exists ((o Int)) ( type_df39fa67_6ffb_44a5_a799_241b07e9c457_Class13 ( obj_bebd4e66_9ba2_45f9_a45e_05b030999fd0 o )  ) ):named c5))
(assert (! (exists ((o Int)) ( type_df39fa67_6ffb_44a5_a799_241b07e9c457_Class14 ( obj_bebd4e66_9ba2_45f9_a45e_05b030999fd0 o )  ) ):named c6))
(assert (! (exists ((o Int)) ( type_df39fa67_6ffb_44a5_a799_241b07e9c457_Class15 ( obj_bebd4e66_9ba2_45f9_a45e_05b030999fd0 o )  ) ):named c7))
(assert (! (exists ((o Int)) (and ( type_df39fa67_6ffb_44a5_a799_241b07e9c457_Class16 ( obj_bebd4e66_9ba2_45f9_a45e_05b030999fd0 o )  )  ( type_df39fa67_6ffb_44a5_a799_241b07e9c457_Class14 ( obj_bebd4e66_9ba2_45f9_a45e_05b030999fd0 o )  ) )):named c8))
(assert (! (exists ((o Int)) ( type_df39fa67_6ffb_44a5_a799_241b07e9c457_Class17 ( obj_bebd4e66_9ba2_45f9_a45e_05b030999fd0 o )  ) ):named c9))
(assert (! (exists ((o Int)) ( type_df39fa67_6ffb_44a5_a799_241b07e9c457_Class2 ( obj_bebd4e66_9ba2_45f9_a45e_05b030999fd0 o )  ) ):named c10))
(assert (! (exists ((o Int)) ( type_df39fa67_6ffb_44a5_a799_241b07e9c457_Class3 ( obj_bebd4e66_9ba2_45f9_a45e_05b030999fd0 o )  ) ):named c11))
(assert (! (exists ((o Int)) ( type_df39fa67_6ffb_44a5_a799_241b07e9c457_Class4 ( obj_bebd4e66_9ba2_45f9_a45e_05b030999fd0 o )  ) ):named c12))
(assert (! (exists ((o Int)) ( type_df39fa67_6ffb_44a5_a799_241b07e9c457_Class5 ( obj_bebd4e66_9ba2_45f9_a45e_05b030999fd0 o )  ) ):named c13))
(assert (! (exists ((o Int)) ( type_df39fa67_6ffb_44a5_a799_241b07e9c457_Class6 ( obj_bebd4e66_9ba2_45f9_a45e_05b030999fd0 o )  ) ):named c14))
(assert (! (exists ((o Int)) ( type_df39fa67_6ffb_44a5_a799_241b07e9c457_Class7 ( obj_bebd4e66_9ba2_45f9_a45e_05b030999fd0 o )  ) ):named c15))
(assert (! (exists ((o Int)) ( type_df39fa67_6ffb_44a5_a799_241b07e9c457_Class8 ( obj_bebd4e66_9ba2_45f9_a45e_05b030999fd0 o )  ) ):named c16))
(assert (! (exists ((o Int)) ( type_df39fa67_6ffb_44a5_a799_241b07e9c457_Class9 ( obj_bebd4e66_9ba2_45f9_a45e_05b030999fd0 o )  ) ):named c17))

 ;end of formula 